presolving:
(round 1, fast)       1144 del vars, 14 del conss, 0 add conss, 0 chg bounds, 0 chg sides, 0 chg coeffs, 0 upgd conss, 0 impls, 9434 clqs
   (0.1s) running MILP presolver
   (0.1s) MILP presolver found nothing
(round 2, exhaustive) 1144 del vars, 14 del conss, 0 add conss, 0 chg bounds, 0 chg sides, 0 chg coeffs, 9494 upgd conss, 0 impls, 9434 clqs
   (7.0s) probing: 1000/8362 (12.0%) - 0 fixings, 0 aggregations, 3540902 implications, 0 bound changes
   (7.0s) probing: 1001/8362 (12.0%) - 0 fixings, 0 aggregations, 3543138 implications, 0 bound changes
   (7.0s) probing aborted: 1000/1000 successive useless probings
   (7.0s) symmetry computation started: requiring (bin +, int -, cont +), (fixed: bin -, int +, cont -)
   (7.1s) no symmetry present
presolving (3 rounds: 3 fast, 2 medium, 2 exhaustive):
 1144 deleted vars, 14 deleted constraints, 0 added constraints, 0 tightened bounds, 0 added holes, 0 changed sides, 60 changed coefficients
 0 implications, 31203 cliques
presolved problem has 8362 variables (8362 bin, 0 int, 0 impl, 0 cont) and 9494 constraints
     60 constraints of type <knapsack>
   9434 constraints of type <setppc>
transformed objective value is always integral (scale: 1)
Presolving Time: 7.05

 time | node  | left  |LP iter|LP it/n|mem/heur|mdpt |vars |cons |rows |cuts |sepa|confs|strbr|  dualbound   | primalbound  |  gap   | compl. 
p 7.1s|     1 |     0 |     0 |     - |  clique|   0 |8362 |9494 |9494 |   0 |  0 |   0 |   0 | 0.000000e+00 | 7.097300e+04 |    Inf | unknown
p 7.3s|     1 |     0 |   112 |     - | vbounds|   0 |8362 |9494 |9494 |   0 |  0 |   0 |   0 | 0.000000e+00 | 6.495400e+04 |    Inf | unknown
  7.7s|     1 |     0 |  1837 |     - |   129M |   0 |8362 |9515 |9494 |   0 |  0 |  21 |   0 | 4.060809e+04 | 6.495400e+04 |  59.95%| unknown
 10.1s|     1 |     0 |  2452 |     - |   138M |   0 |8362 |9516 |9496 |   2 |  1 |  22 |   0 | 4.117145e+04 | 6.495400e+04 |  57.76%| unknown
 10.6s|     1 |     0 |  2627 |     - |   139M |   0 |8362 |9516 |9498 |   4 |  2 |  22 |   0 | 4.134815e+04 | 6.495400e+04 |  57.09%| unknown
 11.1s|     1 |     0 |  3013 |     - |   141M |   0 |8362 |9516 |9502 |   8 |  3 |  22 |   0 | 4.157538e+04 | 6.495400e+04 |  56.23%| unknown
 11.5s|     1 |     0 |  3198 |     - |   142M |   0 |8362 |9517 |9506 |  12 |  4 |  23 |   0 | 4.169625e+04 | 6.495400e+04 |  55.78%| unknown
 12.0s|     1 |     0 |  3379 |     - |   143M |   0 |8362 |9517 |9507 |  13 |  5 |  23 |   0 | 4.176362e+04 | 6.495400e+04 |  55.53%| unknown
 13.3s|     1 |     0 |  3534 |     - |   149M |   0 |8362 |9517 |9509 |  15 |  6 |  23 |   0 | 4.182866e+04 | 6.495400e+04 |  55.29%| unknown
 13.8s|     1 |     0 |  3860 |     - |   150M |   0 |8362 |9517 |9513 |  19 |  7 |  23 |   0 | 4.194209e+04 | 6.495400e+04 |  54.87%| unknown
 14.9s|     1 |     0 |  4159 |     - |   157M |   0 |8362 |9517 |9519 |  25 |  8 |  23 |   0 | 4.204078e+04 | 6.495400e+04 |  54.50%| unknown
 15.4s|     1 |     0 |  4299 |     - |   159M |   0 |8362 |9517 |9523 |  29 |  9 |  23 |   0 | 4.207747e+04 | 6.495400e+04 |  54.37%| unknown
 16.0s|     1 |     0 |  4351 |     - |   160M |   0 |8362 |9516 |9524 |  30 | 10 |  23 |   0 | 4.208539e+04 | 6.495400e+04 |  54.34%| unknown
 16.2s|     1 |     0 |  4560 |     - |   161M |   0 |8362 |9515 |9528 |  34 | 11 |  23 |   0 | 4.216309e+04 | 6.495400e+04 |  54.05%| unknown
 16.4s|     1 |     0 |  4646 |     - |   162M |   0 |8362 |9515 |9531 |  37 | 12 |  23 |   0 | 4.222882e+04 | 6.495400e+04 |  53.81%| unknown
 time | node  | left  |LP iter|LP it/n|mem/heur|mdpt |vars |cons |rows |cuts |sepa|confs|strbr|  dualbound   | primalbound  |  gap   | compl. 
 16.6s|     1 |     0 |  4823 |     - |   163M |   0 |8362 |9514 |9532 |  38 | 13 |  23 |   0 | 4.225102e+04 | 6.495400e+04 |  53.73%| unknown
 16.8s|     1 |     0 |  5062 |     - |   165M |   0 |8362 |9514 |9535 |  41 | 14 |  23 |   0 | 4.229903e+04 | 6.495400e+04 |  53.56%| unknown
 17.0s|     1 |     0 |  5131 |     - |   166M |   0 |8362 |9513 |9538 |  44 | 15 |  23 |   0 | 4.230547e+04 | 6.495400e+04 |  53.54%| unknown
 17.2s|     1 |     0 |  5242 |     - |   167M |   0 |8362 |9514 |9540 |  47 | 16 |  24 |   0 | 4.232413e+04 | 6.495400e+04 |  53.47%| unknown
 17.4s|     1 |     0 |  5380 |     - |   168M |   0 |8362 |9515 |9552 |  59 | 17 |  25 |   0 | 4.234106e+04 | 6.495400e+04 |  53.41%| unknown
 17.7s|     1 |     0 |  5608 |     - |   169M |   0 |8362 |9514 |9554 |  61 | 18 |  25 |   0 | 4.237582e+04 | 6.495400e+04 |  53.28%| unknown
 17.9s|     1 |     0 |  5705 |     - |   170M |   0 |8362 |9514 |9556 |  63 | 19 |  25 |   0 | 4.238732e+04 | 6.495400e+04 |  53.24%| unknown
 18.1s|     1 |     0 |  5751 |     - |   171M |   0 |8362 |9514 |9558 |  65 | 20 |  25 |   0 | 4.239642e+04 | 6.495400e+04 |  53.21%| unknown
 30.4s|     1 |     2 | 22396 |     - |   173M |   0 |8362 |9512 |9558 |  65 | 22 |  26 |  25 | 4.270001e+04 | 6.495400e+04 |  52.12%| unknown
r37.9s|     5 |     4 | 26000 |5090.2 |rounding|   4 |8362 |9512 |9531 |  65 |  0 |  26 |  86 | 4.270001e+04 | 5.675900e+04 |  32.93%| unknown
r37.9s|     5 |     4 | 26003 |5091.0 |rounding|   4 |8362 |9514 |9531 |  65 |  2 |  28 |  88 | 4.270001e+04 | 5.672500e+04 |  32.85%| unknown
r39.0s|     7 |     4 | 26223 |3430.7 |rounding|   5 |8362 |9518 |9531 |  65 |  2 |  32 | 117 | 4.270001e+04 | 5.531500e+04 |  29.54%|   5.92%
*39.2s|     8 |     3 | 26335 |2956.6 |strongbr|   5 |8362 |9518 |9531 |  65 |  1 |  32 | 118 | 4.270001e+04 | 5.517100e+04 |  29.21%|   7.06%
*39.6s|     8 |     3 | 26437 |2971.1 |strongbr|   5 |8362 |9518 |9531 |  65 |  4 |  32 | 132 | 4.270001e+04 | 5.441900e+04 |  27.44%|   7.06%
r39.6s|     8 |     3 | 26466 |2975.3 |rounding|   5 |8362 |9522 |9531 |  65 |  6 |  36 | 134 | 4.270001e+04 | 5.430000e+04 |  27.17%|   7.06%
 time | node  | left  |LP iter|LP it/n|mem/heur|mdpt |vars |cons |rows |cuts |sepa|confs|strbr|  dualbound   | primalbound  |  gap   | compl. 
*46.8s|    10 |     3 | 30058 |2713.2 |strongbr|   5 |8362 |9515 |9531 |  65 |  6 |  36 | 165 | 4.276508e+04 | 5.295700e+04 |  23.83%|   8.37%
*56.1s|    13 |     3 | 33130 |2290.9 |strongbr|   5 |8362 |9528 |9531 |  65 |  1 |  49 | 232 | 4.284815e+04 | 4.910200e+04 |  14.60%|  22.38%
*65.6s|    19 |     3 | 35878 |1679.9 |strongbr|   7 |8362 |9538 |9531 |  65 |  2 |  59 | 342 | 4.284815e+04 | 4.888900e+04 |  14.10%|  36.21%
*69.4s|    21 |     3 | 36181 |1527.1 |strongbr|   8 |8362 |9560 |9531 |  65 |  6 |  82 | 404 | 4.284815e+04 | 4.879500e+04 |  13.88%|  36.79%
*72.4s|    24 |     4 | 36461 |1340.1 |    LP  |  10 |8362 |9565 |9538 |  75 |  2 |  88 | 429 | 4.284815e+04 | 4.852000e+04 |  13.24%|  40.17%
*72.5s|    25 |     3 | 36514 |1286.5 |strongbr|  10 |8362 |9565 |9534 |  75 |  2 |  88 | 433 | 4.284815e+04 | 4.802600e+04 |  12.08%|  40.21%
*73.4s|    27 |     3 | 36603 |1190.9 |    LP  |  10 |8362 |9565 |9542 |  84 |  5 |  88 | 438 | 4.284815e+04 | 4.789900e+04 |  11.79%|  41.78%
*81.1s|    69 |     3 | 47877 | 621.1 |    LP  |  10 |8362 |9564 |9532 | 103 |  2 |  88 | 450 | 4.320573e+04 | 4.786600e+04 |  10.79%|  53.36%
 91.4s|   100 |     4 | 56887 | 517.7 |   206M |  19 |8362 |9560 |9549 | 138 |  1 |  88 | 465 | 4.468491e+04 | 4.786600e+04 |   7.12%|  63.57%
*92.1s|   111 |     5 | 59111 | 486.1 |    LP  |  19 |8362 |9560 |9549 | 138 |  1 |  88 | 465 | 4.468491e+04 | 4.721000e+04 |   5.65%|  63.58%
*93.1s|   134 |     5 | 61498 | 420.0 |    LP  |  22 |8362 |9560 |9551 | 140 |  2 |  88 | 465 | 4.477419e+04 | 4.691900e+04 |   4.79%|  70.85%
*93.1s|   136 |     5 | 61548 | 414.1 |    LP  |  23 |8362 |9560 |9551 | 140 |  2 |  88 | 465 | 4.477419e+04 | 4.685900e+04 |   4.66%|  71.41%

SCIP Status        : problem is solved [optimal solution found]
Solving Time (sec) : 94.35
Solving Nodes      : 165
Primal Bound       : +4.68590000000000e+04 (20 solutions)
Dual Bound         : +4.68590000000000e+04
Gap                : 0.00 %
Solve Status: optimal
Solve Time: 94.36 seconds
Objective Value: 46859.00
